Maximize
  0 x0 + 40 x1 + 0 x2 + 26 x3 + 0 x4 + 24 x5 - 2 x6 + 0 x7 - x8 + 0 x9
   + 38 x10 + 0 x11 - 35 x12 + 0 x13 + 4 x14 + 0 x15 + 6 x16 + 0 x17
   + 0 x18 + 0 x19 + 44 x20 + 37 x21 + 0 x22 + 0 x23 + 22 x24 - 39 x25
   + 0 x26 + 0 x27 + 0 x28 + 0 x29 + 0 x30 + 4 x31 - 21 x32 - 27 x33
   + 0 x34 + 0 x35 + 0 x36 - 45 x37 + 0 x38 + 0 x39 + 0 x40 + 0 x41 + 0 x42
   + 0 x43 + 0 x44 + 27 x45 + 0 x46 + 0 x47 + 0 x48 + 0 x49 + 0 x50 + 0 x51
   + 6 x52 + 0 x53 + 0 x54 + 0 x55 + 0 x56 + 5 x57 + 0 x58 + 0 x59 + 0 x60
   + 0 x61 + 0 x62 + 0 x63 + 0 x64 + 0 x65 + 16 x66 + 0 x67 + 0 x68 + 0 x69
   + 0 x70 + 31 x71 + 0 x72 + 0 x73 + 0 x74 - 2 x75 + 0 x76 + 0 x77 + 0 x78
   + 0 x79 + 0 x80 + 0 x81 + 0 x82 + 0 x83 - 20 x84 + 0 x85 + 0 x86 + 0 x87
   + 0 x88 + 0 x89 + [ 8 x0 * x1 - 70 x0 * x4 + 68 x0 * x8 + 96 x0 * x12
   + 36 x0 * x17 - 86 x0 * x21 - 94 x0 * x22 + 68 x0 * x23 - 30 x0 * x24
   - 2 x0 * x25 - 14 x0 * x31 + 26 x0 * x37 - 98 x0 * x39 + 78 x0 * x41
   + 72 x0 * x42 - 88 x0 * x47 - 88 x0 * x52 + 50 x0 * x56 + 40 x0 * x65
   - 82 x0 * x81 + 72 x0 * x83 + 84 x0 * x87 + 14 x1 * x6 - 82 x1 * x21
   - 46 x1 * x22 + 24 x1 * x28 + 38 x1 * x29 - 78 x1 * x30 - 42 x1 * x39
   + 48 x1 * x41 + 36 x1 * x42 + 36 x1 * x47 - 44 x1 * x53 - 26 x1 * x56
   + 78 x1 * x61 - 56 x1 * x63 + 42 x1 * x66 - 4 x1 * x73 - 42 x1 * x85
   - 34 x2 * x11 + 44 x2 * x16 + 54 x2 * x22 + 26 x2 * x24 + 64 x2 * x29
   - 32 x2 * x30 + 6 x2 * x31 - 46 x2 * x33 - 98 x2 * x34 + 70 x2 * x36
   + 24 x2 * x37 + 80 x2 * x44 - 10 x2 * x45 + 2 x2 * x49 - 70 x2 * x52
   + 48 x2 * x55 - 82 x2 * x67 + 86 x2 * x68 - 34 x2 * x83 + 78 x3 * x7
   + 6 x3 * x10 - 28 x3 * x12 + 28 x3 * x13 + 66 x3 * x15 + 8 x3 * x16
   - 44 x3 * x20 + 86 x3 * x28 + 44 x3 * x29 - 48 x3 * x34 + 22 x3 * x35
   + 26 x3 * x39 - 38 x3 * x49 + 82 x3 * x50 + 32 x3 * x51 + 22 x3 * x59
   + 48 x3 * x60 - 24 x3 * x62 - 60 x3 * x64 - 90 x3 * x67 + 66 x3 * x68
   - 78 x3 * x70 + 32 x3 * x77 + 84 x3 * x82 - 48 x3 * x83 + 8 x3 * x85
   + 6 x3 * x86 - 34 x3 * x87 - 76 x3 * x89 + 82 x4 * x6 + 40 x4 * x7
   + 68 x4 * x10 - 2 x4 * x12 + 28 x4 * x15 + 20 x4 * x27 - 42 x4 * x30
   - 14 x4 * x31 - 60 x4 * x32 - 52 x4 * x48 - 56 x4 * x49 + 78 x4 * x50
   - 68 x4 * x53 - 28 x4 * x56 + 16 x4 * x57 + 30 x4 * x67 + 62 x4 * x72
   + 34 x4 * x74 + 86 x4 * x78 + 90 x4 * x79 + 30 x4 * x81 + 88 x4 * x83
   + 80 x4 * x86 + 70 x4 * x87 - 36 x4 * x88 + 74 x4 * x89 - 62 x5 * x11
   + 48 x5 * x14 + 36 x5 * x15 - 64 x5 * x19 + 46 x5 * x20 - 38 x5 * x21
   - 28 x5 * x23 + 28 x5 * x29 + 8 x5 * x30 - 94 x5 * x34 - 72 x5 * x35
   + 38 x5 * x39 - 70 x5 * x40 + 46 x5 * x45 - 80 x5 * x46 + 40 x5 * x49
   + 74 x5 * x53 - 48 x5 * x55 - 90 x5 * x56 + 64 x5 * x57 + 10 x5 * x63
   + 32 x5 * x66 + 54 x5 * x74 + 12 x5 * x75 - 98 x5 * x80 + 70 x5 * x81
   - 46 x5 * x85 + 82 x5 * x89 - 18 x6 * x12 + 28 x6 * x18 - 88 x6 * x19
   + 48 x6 * x21 - 84 x6 * x24 - 36 x6 * x29 + 50 x6 * x35 + 62 x6 * x38
   - 96 x6 * x42 + 40 x6 * x45 - 24 x6 * x52 + 16 x6 * x53 - 94 x6 * x62
   - 46 x6 * x63 - 90 x6 * x64 - 28 x6 * x67 - 60 x6 * x71 - 68 x6 * x77
   - 24 x6 * x88 - 74 x7 * x16 + 72 x7 * x22 - 60 x7 * x27 + 88 x7 * x28
   + 32 x7 * x34 + 4 x7 * x36 - 82 x7 * x39 + 50 x7 * x43 + 84 x7 * x45
   + 88 x7 * x48 - 78 x7 * x52 + 22 x7 * x57 + 64 x7 * x59 + 36 x7 * x61
   + 14 x7 * x66 + 70 x7 * x69 + 66 x7 * x73 - 10 x7 * x79 - 52 x7 * x84
   - 38 x7 * x86 + 60 x7 * x88 - 36 x7 * x89 + 38 x8 * x11 - 94 x8 * x13
   + 56 x8 * x15 - 74 x8 * x17 + 18 x8 * x21 + 66 x8 * x24 - 84 x8 * x27
   - 86 x8 * x31 + 36 x8 * x35 - 16 x8 * x36 - 96 x8 * x37 - 18 x8 * x38
   - 68 x8 * x42 + 44 x8 * x45 + 66 x8 * x46 - 86 x8 * x47 + 36 x8 * x59
   - 92 x8 * x63 + 16 x8 * x64 + 28 x8 * x65 + 36 x8 * x69 + 10 x8 * x70
   - 88 x8 * x76 - 66 x8 * x79 + 60 x8 * x80 + 80 x8 * x81 - 32 x8 * x89
   - 96 x9 * x12 + 76 x9 * x15 - 22 x9 * x17 + 52 x9 * x20 - 74 x9 * x22
   + 68 x9 * x24 + 4 x9 * x25 + 30 x9 * x27 - 32 x9 * x31 + 38 x9 * x32
   + 92 x9 * x34 - 98 x9 * x46 + 8 x9 * x49 - 6 x9 * x50 - 78 x9 * x51
   - 26 x9 * x53 - 66 x9 * x57 + 96 x9 * x58 + 60 x9 * x61 - 8 x9 * x72
   + 10 x9 * x73 + 2 x9 * x74 - 48 x9 * x81 + 66 x9 * x86 + 10 x10 * x18
   + 96 x10 * x19 - 84 x10 * x21 - 62 x10 * x27 + 72 x10 * x32
   - 86 x10 * x43 + 70 x10 * x44 + 30 x10 * x53 - 80 x10 * x56
   + 38 x10 * x61 - 98 x10 * x64 - 78 x10 * x68 - 16 x10 * x73
   + 96 x10 * x80 + 14 x10 * x82 + 30 x10 * x85 + 54 x10 * x88
   + 38 x11 * x12 + 56 x11 * x15 + 8 x11 * x17 + 4 x11 * x18 - 96 x11 * x28
   + 68 x11 * x33 - 24 x11 * x37 + 50 x11 * x42 + 26 x11 * x47
   - 14 x11 * x51 + 56 x11 * x57 + 80 x11 * x58 - 60 x11 * x62
   - 60 x11 * x66 - 96 x11 * x70 + 98 x11 * x71 + 4 x11 * x74
   + 56 x11 * x77 + 12 x11 * x83 + 70 x11 * x84 + 36 x12 * x13
   + 96 x12 * x17 + 80 x12 * x21 + 32 x12 * x24 + 42 x12 * x29
   + 38 x12 * x34 + 94 x12 * x38 - 30 x12 * x43 - 6 x12 * x47 + 8 x12 * x49
   + 70 x12 * x64 + 88 x12 * x65 + 34 x12 * x68 - 76 x12 * x69
   - 84 x12 * x70 - 20 x12 * x74 - 78 x12 * x75 - 2 x12 * x79
   - 16 x12 * x80 - 64 x12 * x81 + 34 x12 * x83 - 4 x12 * x86
   + 58 x12 * x88 - 78 x12 * x89 + 30 x13 ^2 - 84 x13 * x17 + 6 x13 * x18
   - 44 x13 * x21 + 26 x13 * x25 + 86 x13 * x26 - 94 x13 * x28
   - 66 x13 * x29 + 26 x13 * x30 - 80 x13 * x40 - 88 x13 * x47
   - 62 x13 * x51 + 88 x13 * x54 + 64 x13 * x58 - 82 x13 * x59
   - 8 x13 * x60 - 90 x13 * x69 + 52 x13 * x71 + 10 x13 * x81
   + 22 x13 * x84 + 47 x14 ^2 + 98 x14 * x16 - 48 x14 * x22 + 56 x14 * x24
   + 52 x14 * x29 - 92 x14 * x31 + 16 x14 * x32 - 34 x14 * x33
   - 84 x14 * x37 - 88 x14 * x49 + 88 x14 * x53 + 82 x14 * x54
   - 34 x14 * x56 - 36 x14 * x68 + 20 x14 * x74 - 4 x14 * x75
   + 66 x14 * x76 - 2 x14 * x79 - 76 x14 * x89 - 5 x15 ^2 + 30 x15 * x16
   - 38 x15 * x17 + 30 x15 * x34 + 12 x15 * x35 - 22 x15 * x36
   - 56 x15 * x37 + 6 x15 * x39 + 2 x15 * x41 - 18 x15 * x59 + 28 x15 * x61
   - 94 x15 * x68 - 4 x15 * x72 - 90 x15 * x74 + 82 x15 * x76 - 2 x15 * x79
   - 92 x15 * x83 + 40 x15 * x88 - 44 x15 * x89 + x16 ^2 - 98 x16 * x19
   + 2 x16 * x23 - 48 x16 * x26 + 38 x16 * x30 - 66 x16 * x32
   - 34 x16 * x37 - 22 x16 * x40 - 56 x16 * x41 - 4 x16 * x44
   - 26 x16 * x46 + 10 x16 * x49 + 4 x16 * x54 + 48 x16 * x57
   - 66 x16 * x58 - 16 x16 * x62 - 12 x16 * x64 - 68 x16 * x67
   - 28 x16 * x68 + 36 x16 * x70 + 58 x16 * x73 + 88 x16 * x81
   - 64 x16 * x87 + 46 x17 ^2 - 68 x17 * x29 - 62 x17 * x36 - 32 x17 * x37
   - 66 x17 * x43 - 38 x17 * x45 - 40 x17 * x47 - 28 x17 * x55
   - 46 x17 * x62 + 92 x17 * x63 - 44 x17 * x65 - 80 x17 * x69
   + 58 x17 * x74 - 46 x17 * x77 + 56 x17 * x85 + 54 x17 * x88
   + 88 x18 * x20 - 4 x18 * x23 + 78 x18 * x25 - 78 x18 * x28
   - 22 x18 * x30 - 96 x18 * x32 - 78 x18 * x34 - 64 x18 * x43
   - 46 x18 * x44 + 72 x18 * x53 + 70 x18 * x54 + 54 x18 * x55
   - 68 x18 * x58 + 98 x18 * x60 - 24 x18 * x77 - 2 x18 * x84
   + 46 x19 * x24 + 80 x19 * x30 + 46 x19 * x33 - 92 x19 * x43
   + 70 x19 * x52 - 70 x19 * x54 - 16 x19 * x56 + 48 x19 * x59
   + 46 x19 * x69 - 36 x19 * x74 - 6 x19 * x75 - 24 x19 * x83
   + 24 x19 * x85 - 62 x19 * x87 - 40 x20 * x33 - 64 x20 * x34
   + 60 x20 * x52 + 50 x20 * x55 + 38 x20 * x57 + 30 x20 * x59
   + 40 x20 * x66 + 32 x20 * x71 + 20 x20 * x79 - 10 x20 * x81
   - 28 x20 * x83 + 60 x20 * x87 + 12 x21 * x22 - 84 x21 * x25
   + 26 x21 * x28 + 80 x21 * x29 + 60 x21 * x42 + 72 x21 * x43
   + 22 x21 * x48 + 54 x21 * x49 + 34 x21 * x50 + 60 x21 * x52
   + 44 x21 * x56 + 54 x21 * x58 + 8 x21 * x61 + 40 x21 * x63
   + 46 x21 * x69 + 92 x21 * x78 - 12 x21 * x81 - 24 x21 * x82
   + 94 x21 * x84 + 8 x21 * x88 + 46 x22 * x29 + 48 x22 * x36 - 2 x22 * x37
   + 96 x22 * x38 + 30 x22 * x40 + 36 x22 * x43 + 34 x22 * x50
   + 64 x22 * x55 + 72 x22 * x56 + 82 x22 * x68 + 12 x22 * x70
   + 92 x22 * x73 + 74 x22 * x83 + 30 x22 * x86 - 56 x22 * x88
   - 12 x23 * x26 - 12 x23 * x37 - 80 x23 * x45 + 80 x23 * x55
   - 22 x23 * x61 - 26 x23 * x66 + 88 x23 * x75 - 44 x23 * x81
   + 68 x23 * x84 - 58 x23 * x85 - 14 x23 * x87 - 62 x24 * x27
   - 50 x24 * x28 + 52 x24 * x29 + 22 x24 * x30 - 78 x24 * x37
   - 28 x24 * x38 + 30 x24 * x40 - 96 x24 * x42 + 36 x24 * x43
   - 90 x24 * x48 - 82 x24 * x50 - 10 x24 * x52 - 24 x24 * x53
   + 28 x24 * x55 - 74 x24 * x57 - 24 x24 * x65 - 86 x24 * x68
   - 28 x24 * x72 + 42 x24 * x77 - 18 x24 * x78 - 72 x24 * x80
   + 94 x24 * x82 + 38 x24 * x84 - 74 x25 * x30 - 18 x25 * x31
   - 40 x25 * x32 + 54 x25 * x33 - 54 x25 * x35 - 14 x25 * x39
   + 90 x25 * x40 - 46 x25 * x48 - 10 x25 * x55 - 68 x25 * x56
   - 20 x25 * x60 + 10 x25 * x63 - 88 x25 * x65 - 68 x25 * x73
   + 2 x25 * x84 + 86 x25 * x88 + 31 x26 ^2 - 96 x26 * x28 + 34 x26 * x31
   + 92 x26 * x36 + 36 x26 * x37 + 80 x26 * x43 + 30 x26 * x45
   - 4 x26 * x46 + 76 x26 * x53 - 64 x26 * x57 - 88 x26 * x60
   + 30 x26 * x66 + 76 x26 * x68 + 68 x26 * x71 + 72 x26 * x73
   + 76 x26 * x74 + 32 x26 * x83 - 14 x27 * x29 - 98 x27 * x32
   - 26 x27 * x34 + 50 x27 * x35 - 96 x27 * x37 + 68 x27 * x39
   - 42 x27 * x41 - 26 x27 * x56 + 28 x27 * x57 + 46 x27 * x59
   + 14 x27 * x60 - 34 x27 * x62 - 24 x27 * x63 - 28 x27 * x67
   - 26 x27 * x69 - 78 x27 * x88 + 8 x28 * x30 - 64 x28 * x36
   + 16 x28 * x46 - 78 x28 * x56 + 8 x28 * x63 + 22 x28 * x66
   + 46 x28 * x68 + 78 x28 * x77 + 88 x28 * x86 - 68 x29 * x32
   - 22 x29 * x34 - 90 x29 * x36 + 96 x29 * x45 + 56 x29 * x46
   + 32 x29 * x51 - 64 x29 * x53 + 68 x29 * x60 - 42 x29 * x61
   - 70 x29 * x63 + 50 x29 * x64 + 40 x29 * x67 + 72 x29 * x68
   - 74 x29 * x69 - 8 x29 * x72 + 16 x29 * x79 - 86 x29 * x80
   - 36 x29 * x81 - 40 x29 * x83 + 64 x30 * x38 + 66 x30 * x40
   + 56 x30 * x41 - 12 x30 * x45 - 24 x30 * x48 - 84 x30 * x53
   + 4 x30 * x57 + 60 x30 * x65 - 72 x30 * x66 - 78 x30 * x68 + 6 x30 * x69
   - 44 x30 * x72 + 94 x30 * x75 + 94 x30 * x83 + 64 x31 * x33
   + 56 x31 * x47 + 94 x31 * x54 + 70 x31 * x56 + 2 x31 * x57
   + 24 x31 * x59 + 90 x31 * x60 - 76 x31 * x62 - 58 x31 * x64
   + 44 x31 * x69 + 74 x31 * x76 + 22 x31 * x79 - 20 x31 * x85
   + 82 x31 * x86 + 60 x31 * x87 + 8 x31 * x88 + 2 x31 * x89 + 20 x32 * x33
   + 78 x32 * x42 - 50 x32 * x45 + 64 x32 * x46 + 60 x32 * x53
   + 82 x32 * x54 - 14 x32 * x55 + 42 x32 * x58 - 14 x32 * x61
   + 56 x32 * x66 - 94 x32 * x76 - 50 x32 * x84 - 8 x33 * x39
   - 10 x33 * x48 - 40 x33 * x49 + 36 x33 * x54 - 22 x33 * x57
   - 18 x33 * x62 + 48 x33 * x65 - 42 x33 * x67 + 84 x33 * x68
   + 2 x33 * x75 - 30 x33 * x76 + 88 x33 * x79 + 6 x33 * x86 - 90 x34 * x38
   - 74 x34 * x39 + 62 x34 * x43 - 84 x34 * x47 + 58 x34 * x54
   - 58 x34 * x57 + 46 x34 * x58 - 40 x34 * x59 - 24 x34 * x72
   - 16 x34 * x73 - 14 x34 * x79 + 56 x34 * x84 - 78 x34 * x88
   + 44 x35 * x38 - 60 x35 * x39 + 32 x35 * x43 - 4 x35 * x50 + 2 x35 * x61
   - 4 x35 * x68 - 8 x35 * x69 + 86 x35 * x73 - 86 x35 * x77 - 34 x35 * x80
   + 88 x35 * x82 + 52 x35 * x84 - 66 x36 * x38 - 86 x36 * x40
   + 52 x36 * x41 - 42 x36 * x51 + 96 x36 * x55 - 52 x36 * x58
   - 14 x36 * x65 + 16 x36 * x70 + 92 x36 * x72 + 36 x36 * x73
   - 94 x36 * x82 - 74 x36 * x85 + 42 x36 * x88 - 58 x36 * x89
   - 86 x37 * x38 + 26 x37 * x53 - 50 x37 * x54 + 32 x37 * x63
   - 28 x37 * x67 - 60 x37 * x68 + 88 x37 * x70 + 66 x37 * x76
   - 74 x37 * x88 + 2 x38 * x44 - 48 x38 * x52 + 30 x38 * x53
   - 96 x38 * x54 + 82 x38 * x59 + 98 x38 * x64 - 96 x38 * x69
   - 20 x38 * x70 + 18 x38 * x72 - 18 x38 * x73 + 56 x38 * x78
   - 80 x38 * x81 - 40 x38 * x84 + 62 x38 * x87 + 78 x39 * x40
   - 96 x39 * x41 + 88 x39 * x42 + 66 x39 * x46 + 86 x39 * x51
   - 62 x39 * x54 + 56 x39 * x57 - 44 x39 * x59 - 84 x39 * x71
   + 20 x39 * x85 + 48 x39 * x86 - 47 x40 ^2 - 30 x40 * x45 - 86 x40 * x48
   - 10 x40 * x50 - 10 x40 * x55 - 64 x40 * x56 - 4 x40 * x58
   - 10 x40 * x61 + 40 x40 * x62 + 16 x40 * x73 - 30 x40 * x74
   - 80 x40 * x76 + 8 x40 * x78 - 90 x40 * x82 - 92 x40 * x87 + 2 x41 ^2
   + 74 x41 * x49 - 82 x41 * x50 + 16 x41 * x58 + 8 x41 * x59
   + 66 x41 * x64 - 78 x41 * x74 - 12 x41 * x79 + 58 x41 * x82
   - 40 x41 * x83 + 26 x41 * x88 - 32 x42 * x44 - 44 x42 * x46
   - 14 x42 * x53 + 68 x42 * x57 - 58 x42 * x68 - 6 x42 * x69
   - 64 x42 * x72 - 34 x42 * x74 + 8 x42 * x78 + 46 x42 * x86 + 4 x42 * x87
   + 23 x43 ^2 + 90 x43 * x52 + 66 x43 * x53 + 16 x43 * x55 - 54 x43 * x59
   - 10 x43 * x61 - 16 x43 * x68 + 16 x43 * x71 - 54 x43 * x73
   - 70 x43 * x74 - 24 x43 * x77 - 38 x43 * x78 - 74 x43 * x82 + 21 x44 ^2
   + 78 x44 * x46 - 48 x44 * x62 + 58 x44 * x64 - 74 x44 * x66
   - 42 x44 * x73 + 36 x44 * x76 - 96 x44 * x83 + 98 x45 * x46
   + 18 x45 * x50 - 78 x45 * x53 + 34 x45 * x55 + 38 x45 * x58
   + 88 x45 * x65 + 66 x45 * x68 + 34 x45 * x71 - 88 x45 * x73
   + 36 x45 * x77 - 50 x45 * x78 + 32 x45 * x81 - 28 x45 * x84
   + 18 x45 * x89 - 78 x46 * x49 - 52 x46 * x53 + 18 x46 * x54
   - 64 x46 * x59 + 10 x46 * x62 - 42 x46 * x64 + 88 x46 * x66
   + 10 x46 * x73 - 92 x46 * x76 - 90 x46 * x80 - 4 x46 * x81
   - 84 x47 * x58 + 40 x47 * x63 + 78 x47 * x67 + 48 x47 * x68
   + 2 x47 * x73 - 46 x47 * x75 + 12 x47 * x79 - 30 x47 * x82
   + 64 x47 * x84 - 78 x47 * x88 - 16 x47 * x89 - 11 x48 ^2 + 4 x48 * x63
   - 36 x48 * x64 + 56 x48 * x71 + 6 x48 * x73 + 30 x48 * x77
   - 70 x48 * x82 + 50 x48 * x89 + 20 x49 * x50 - 78 x49 * x58
   + 94 x49 * x61 - 70 x49 * x62 - 2 x49 * x65 + 20 x49 * x70
   + 62 x49 * x74 + 26 x49 * x85 + 2 x49 * x89 - 20 x50 * x53
   + 88 x50 * x55 + 48 x50 * x61 - 16 x50 * x62 - 82 x50 * x69
   + 74 x50 * x70 + 20 x50 * x71 + 82 x50 * x80 + 86 x50 * x81
   + 76 x50 * x86 - 40 x51 * x56 + 16 x51 * x61 + 72 x51 * x67
   - 36 x51 * x76 + 20 x51 * x78 + 80 x51 * x81 - 44 x51 * x84
   + 88 x51 * x86 + 18 x51 * x88 - 46 x51 * x89 - 12 x52 * x58
   - 92 x52 * x65 + 58 x52 * x67 + 12 x52 * x73 - 16 x52 * x76
   + 16 x52 * x81 - 90 x52 * x85 + 22 x52 * x86 + 72 x53 * x55
   + 80 x53 * x56 - 60 x53 * x58 - 16 x53 * x64 - 10 x53 * x65
   - 2 x53 * x66 - 10 x53 * x75 + 64 x53 * x77 - 10 x54 * x55 - 6 x54 * x56
   + 66 x54 * x58 + 86 x54 * x65 + 16 x54 * x71 - 88 x54 * x78
   - 12 x54 * x86 - 13 x55 ^2 - 34 x55 * x57 + 88 x55 * x62 + 38 x55 * x65
   + 40 x55 * x68 - 78 x55 * x72 + 62 x55 * x74 - 48 x55 * x77
   + 18 x55 * x79 - 6 x55 * x85 - 30 x55 * x87 - 18 x56 * x65
   - 16 x56 * x83 - 98 x56 * x84 - x57 ^2 + 92 x57 * x60 - 68 x57 * x61
   + 98 x57 * x66 - 48 x57 * x68 + 46 x57 * x69 + 42 x57 * x70
   + 26 x57 * x71 - 28 x57 * x72 + 46 x58 * x59 + 4 x58 * x61
   + 30 x58 * x62 + 62 x58 * x66 + 86 x58 * x70 - 62 x58 * x76
   - 6 x58 * x77 + 64 x58 * x85 - 90 x59 * x62 - 46 x59 * x69 - 4 x59 * x70
   - 48 x59 * x72 + 34 x59 * x73 - 16 x59 * x78 - 12 x59 * x79
   - 60 x59 * x81 + 80 x59 * x84 - 62 x59 * x87 + 72 x59 * x89 + 5 x60 ^2
   - 88 x60 * x65 + 94 x60 * x68 + 76 x60 * x70 + 38 x60 * x71
   + 12 x60 * x73 + 60 x60 * x74 - 8 x60 * x75 + 86 x60 * x78
   + 50 x60 * x81 + 64 x61 * x66 + 26 x61 * x69 - 64 x61 * x72
   + 20 x61 * x79 + 24 x61 * x82 + 14 x61 * x88 - 38 x62 * x63
   + 96 x62 * x66 - 8 x62 * x68 - 48 x62 * x80 - 14 x62 * x83
   - 64 x62 * x86 + 2 x63 * x65 + 64 x63 * x74 - 20 x63 * x76
   + 34 x63 * x77 + 56 x63 * x78 + 26 x63 * x81 - 62 x63 * x82
   + 76 x64 * x65 + 64 x64 * x66 - 84 x64 * x67 - 84 x64 * x72
   + 12 x64 * x74 + 80 x64 * x75 + 80 x64 * x79 - 18 x64 * x81
   + 66 x64 * x82 + 16 x64 * x87 + 41 x65 ^2 + 82 x65 * x70 + 96 x65 * x75
   + 40 x65 * x79 - 32 x65 * x84 + 92 x65 * x86 + 14 x65 * x88 + 30 x66 ^2
   - 50 x66 * x72 + 6 x66 * x76 - 34 x66 * x79 - 88 x66 * x80
   + 76 x66 * x84 - 42 x66 * x88 + 82 x67 * x70 + 50 x67 * x78
   + 76 x67 * x79 + 90 x67 * x81 + 42 x67 * x85 - 18 x67 * x88 - 13 x68 ^2
   - 88 x68 * x71 - 6 x68 * x77 - 98 x68 * x84 - 78 x68 * x86
   + 10 x68 * x87 - 98 x69 * x72 + 4 x69 * x73 - 42 x69 * x76
   - 76 x69 * x79 + 54 x69 * x85 + 68 x69 * x86 + 70 x69 * x88
   + 24 x70 * x78 + 18 x70 * x86 - 28 x70 * x88 - 4 x71 * x75
   - 18 x71 * x77 + 92 x71 * x83 - 4 x71 * x84 - 10 x72 * x74
   + 68 x72 * x79 - 86 x72 * x80 + 30 x72 * x83 + 24 x72 * x84
   - 86 x72 * x88 - 56 x73 * x77 - 98 x73 * x79 - 60 x73 * x80
   - 42 x73 * x81 + 78 x73 * x86 + 72 x73 * x89 + 41 x74 ^2 - 86 x74 * x77
   + 72 x74 * x81 + 68 x74 * x85 + 70 x75 * x76 + 46 x75 * x77
   + 28 x75 * x78 + 86 x75 * x83 + 38 x75 * x89 + 47 x76 ^2 + 46 x76 * x77
   - 92 x76 * x79 + 50 x76 * x88 + 19 x77 ^2 - 98 x77 * x81 + 20 x77 * x88
   - 78 x77 * x89 + 44 x78 * x81 + 12 x78 * x84 + 56 x78 * x88 + 37 x79 ^2
   - 96 x79 * x85 + 68 x79 * x89 - 12 x80 * x87 + 70 x80 * x89
   - 96 x81 * x83 - 90 x81 * x88 - 6 x82 * x83 - 68 x84 * x85
   + 90 x84 * x87 - 24 x84 * x89 - 41 x87 ^2 ] / 2 
Subject To
Bounds
 x0 <= 1
 x1 <= 1
 x2 <= 1
 x3 <= 1
 x4 <= 1
 x5 <= 1
 x6 <= 1
 x7 <= 1
 x8 <= 1
 x9 <= 1
 x10 <= 1
 x11 <= 1
 x12 <= 1
 x13 <= 1
 x14 <= 1
 x15 <= 1
 x16 <= 1
 x17 <= 1
 x18 <= 1
 x19 <= 1
 x20 <= 1
 x21 <= 1
 x22 <= 1
 x23 <= 1
 x24 <= 1
 x25 <= 1
 x26 <= 1
 x27 <= 1
 x28 <= 1
 x29 <= 1
 x30 <= 1
 x31 <= 1
 x32 <= 1
 x33 <= 1
 x34 <= 1
 x35 <= 1
 x36 <= 1
 x37 <= 1
 x38 <= 1
 x39 <= 1
 x40 <= 1
 x41 <= 1
 x42 <= 1
 x43 <= 1
 x44 <= 1
 x45 <= 1
 x46 <= 1
 x47 <= 1
 x48 <= 1
 x49 <= 1
 x50 <= 1
 x51 <= 1
 x52 <= 1
 x53 <= 1
 x54 <= 1
 x55 <= 1
 x56 <= 1
 x57 <= 1
 x58 <= 1
 x59 <= 1
 x60 <= 1
 x61 <= 1
 x62 <= 1
 x63 <= 1
 x64 <= 1
 x65 <= 1
 x66 <= 1
 x67 <= 1
 x68 <= 1
 x69 <= 1
 x70 <= 1
 x71 <= 1
 x72 <= 1
 x73 <= 1
 x74 <= 1
 x75 <= 1
 x76 <= 1
 x77 <= 1
 x78 <= 1
 x79 <= 1
 x80 <= 1
 x81 <= 1
 x82 <= 1
 x83 <= 1
 x84 <= 1
 x85 <= 1
 x86 <= 1
 x87 <= 1
 x88 <= 1
 x89 <= 1
End
